c Generated map
c Size: 9 * 9, weights in range: 1 to 10, walls: False, with ratio 0.0
c dim 4 of 7
c
p sp 81 144
c graph contains 81 nodes and 144 arcs
c
a 1 10 4
a 10 1 4
a 1 2 1
a 2 1 1
a 2 11 5
a 11 2 5
a 2 3 8
a 3 2 8
a 3 12 10
a 12 3 10
a 3 4 9
a 4 3 9
a 4 13 10
a 13 4 10
a 4 5 6
a 5 4 6
a 5 14 3
a 14 5 3
a 5 6 3
a 6 5 3
a 6 15 8
a 15 6 8
a 6 7 4
a 7 6 4
a 7 16 7
a 16 7 7
a 7 8 1
a 8 7 1
a 8 17 9
a 17 8 9
a 8 9 2
a 9 8 2
a 9 18 10
a 18 9 10
a 10 19 1
a 19 10 1
a 10 11 9
a 11 10 9
a 11 20 9
a 20 11 9
a 11 12 3
a 12 11 3
a 12 21 6
a 21 12 6
a 12 13 5
a 13 12 5
a 13 22 4
a 22 13 4
a 13 14 8
a 14 13 8
a 14 23 3
a 23 14 3
a 14 15 5
a 15 14 5
a 15 24 5
a 24 15 5
a 15 16 8
a 16 15 8
a 16 25 9
a 25 16 9
a 16 17 7
a 17 16 7
a 17 26 4
a 26 17 4
a 17 18 10
a 18 17 10
a 18 27 4
a 27 18 4
a 19 28 6
a 28 19 6
a 19 20 1
a 20 19 1
a 20 29 6
a 29 20 6
a 20 21 9
a 21 20 9
a 21 30 3
a 30 21 3
a 21 22 3
a 22 21 3
a 22 31 2
a 31 22 2
a 22 23 6
a 23 22 6
a 23 32 5
a 32 23 5
a 23 24 3
a 24 23 3
a 24 33 4
a 33 24 4
a 24 25 6
a 25 24 6
a 25 34 3
a 34 25 3
a 25 26 1
a 26 25 1
a 26 35 10
a 35 26 10
a 26 27 6
a 27 26 6
a 27 36 9
a 36 27 9
a 28 37 3
a 37 28 3
a 28 29 9
a 29 28 9
a 29 38 8
a 38 29 8
a 29 30 2
a 30 29 2
a 30 39 2
a 39 30 2
a 30 31 6
a 31 30 6
a 31 40 7
a 40 31 7
a 31 32 4
a 32 31 4
a 32 41 6
a 41 32 6
a 32 33 9
a 33 32 9
a 33 42 6
a 42 33 6
a 33 34 6
a 34 33 6
a 34 43 10
a 43 34 10
a 34 35 7
a 35 34 7
a 35 44 2
a 44 35 2
a 35 36 9
a 36 35 9
a 36 45 1
a 45 36 1
a 37 46 9
a 46 37 9
a 37 38 7
a 38 37 7
a 38 47 9
a 47 38 9
a 38 39 5
a 39 38 5
a 39 48 10
a 48 39 10
a 39 40 6
a 40 39 6
a 40 49 10
a 49 40 10
a 40 41 4
a 41 40 4
a 41 50 2
a 50 41 2
a 41 42 1
a 42 41 1
a 42 51 9
a 51 42 9
a 42 43 7
a 43 42 7
a 43 52 2
a 52 43 2
a 43 44 9
a 44 43 9
a 44 53 9
a 53 44 9
a 44 45 5
a 45 44 5
a 45 54 6
a 54 45 6
a 46 55 9
a 55 46 9
a 46 47 7
a 47 46 7
a 47 56 6
a 56 47 6
a 47 48 9
a 48 47 9
a 48 57 1
a 57 48 1
a 48 49 9
a 49 48 9
a 49 58 8
a 58 49 8
a 49 50 6
a 50 49 6
a 50 59 4
a 59 50 4
a 50 51 9
a 51 50 9
a 51 60 9
a 60 51 9
a 51 52 2
a 52 51 2
a 52 61 1
a 61 52 1
a 52 53 2
a 53 52 2
a 53 62 2
a 62 53 2
a 53 54 10
a 54 53 10
a 54 63 4
a 63 54 4
a 55 64 10
a 64 55 10
a 55 56 9
a 56 55 9
a 56 65 10
a 65 56 10
a 56 57 2
a 57 56 2
a 57 66 10
a 66 57 10
a 57 58 10
a 58 57 10
a 58 67 4
a 67 58 4
a 58 59 6
a 59 58 6
a 59 68 3
a 68 59 3
a 59 60 8
a 60 59 8
a 60 69 3
a 69 60 3
a 60 61 8
a 61 60 8
a 61 70 6
a 70 61 6
a 61 62 10
a 62 61 10
a 62 71 7
a 71 62 7
a 62 63 8
a 63 62 8
a 63 72 10
a 72 63 10
a 64 73 3
a 73 64 3
a 64 65 4
a 65 64 4
a 65 74 1
a 74 65 1
a 65 66 2
a 66 65 2
a 66 75 9
a 75 66 9
a 66 67 7
a 67 66 7
a 67 76 8
a 76 67 8
a 67 68 5
a 68 67 5
a 68 77 6
a 77 68 6
a 68 69 6
a 69 68 6
a 69 78 8
a 78 69 8
a 69 70 6
a 70 69 6
a 70 79 7
a 79 70 7
a 70 71 2
a 71 70 2
a 71 80 10
a 80 71 10
a 71 72 9
a 72 71 9
a 72 81 5
a 81 72 5
a 73 74 2
a 74 73 2
a 74 75 9
a 75 74 9
a 75 76 5
a 76 75 5
a 76 77 8
a 77 76 8
a 77 78 7
a 78 77 7
a 78 79 7
a 79 78 7
a 79 80 4
a 80 79 4
a 80 81 5
a 81 80 5
